
Welcome to IBM(R) ILOG(R) CPLEX(R) Interactive Optimizer 22.1.1.0
  with Simplex, Mixed Integer & Barrier Optimizers
5725-A06 5725-A29 5724-Y48 5724-Y49 5724-Y54 5724-Y55 5655-Y21
Copyright IBM Corp. 1988, 2022.  All Rights Reserved.

Type 'help' for a list of available commands.
Type 'help' followed by a command name for more
information on commands.

CPLEX> Selected objective sense:  MINIMIZE
Selected objective  name:  00000000
Selected RHS        name:  RHS1
Selected bound      name:  BOUND
Problem 'ee.mps' read.
Read time = 0.02 sec. (3.17 ticks)
CPLEX> New value for time limit in seconds: 7200
CPLEX> New value for parallel optimization mode: -1
CPLEX> New value for default parallel thread count: 40
CPLEX> New value for mixed integer optimality gap tolerance: 1e-13
CPLEX> Version identifier: 22.1.1.0 | 2022-11-28 | 9160aff4d
CPXPARAM_Threads                                 40
CPXPARAM_Parallel                                -1
CPXPARAM_TimeLimit                               7200
CPXPARAM_MIP_Tolerances_MIPGap                   1e-13
Found incumbent of value 0.000000 after 0.00 sec. (0.31 ticks)
Tried aggregator 2 times.
MIP Presolve eliminated 183 rows and 2745 columns.
MIP Presolve modified 6090 coefficients.
Aggregator did 713 substitutions.
Reduced MIP has 3636 rows, 7840 columns, and 28954 nonzeros.
Reduced MIP has 7840 binaries, 0 generals, 0 SOSs, and 0 indicators.
Presolve time = 0.07 sec. (69.13 ticks)
Probing time = 0.03 sec. (5.33 ticks)
Tried aggregator 1 time.
Detecting symmetries...
Reduced MIP has 3636 rows, 7840 columns, and 28954 nonzeros.
Reduced MIP has 7840 binaries, 0 generals, 0 SOSs, and 0 indicators.
Presolve time = 0.03 sec. (22.10 ticks)
Probing time = 0.02 sec. (5.12 ticks)
Clique table members: 18788.
MIP emphasis: balance optimality and feasibility.
MIP search method: dynamic search.
Parallel mode: opportunistic, using up to 40 threads.
Root relaxation solution time = 0.11 sec. (80.11 ticks)

        Nodes                                         Cuts/
   Node  Left     Objective  IInf  Best Integer    Best Bound    ItCnt     Gap

*     0+    0                            0.0000  -1.54000e+13              --- 
*     0+    0                      -4.80000e+12  -1.54000e+13           220.83%
*     0+    0                      -6.00000e+12  -1.54000e+13           156.67%
      0     0  -1.53900e+13    92  -6.00000e+12  -1.53900e+13     1944  156.50%
*     0+    0                      -1.08000e+13  -1.53900e+13            42.50%
*     0+    0                      -1.53900e+13  -1.53900e+13             0.00%
      0     0  -1.53900e+13   173  -1.53900e+13      Cuts: 89     2731    0.00%
*     0+    0                      -1.53900e+13  -1.53900e+13             0.00%
      0     0  -1.53900e+13   199  -1.53900e+13      Cuts: 84     3389    0.00%
*     0+    0                      -1.53900e+13  -1.53900e+13             0.00%
      0    23        cutoff        -1.53900e+13  -1.53900e+13    13441    0.00%
Elapsed time = 2.39 sec. (1065.94 ticks, tree = 0.02 MB, solutions = 10)
    200    12  -1.53900e+13   191  -1.53900e+13  -1.53900e+13     6418    0.00%
    666    65  -1.53900e+13   270  -1.53900e+13  -1.53900e+13    34748    0.00%
   1202   112  -1.53900e+13   193  -1.53900e+13  -1.53900e+13    56851    0.00%
   1593   143  -1.53900e+13   115  -1.53900e+13  -1.53900e+13    71330    0.00%
   1942   273  -1.53900e+13   181  -1.53900e+13  -1.53900e+13   138128    0.00%
   2203   352  -1.53900e+13   152  -1.53900e+13  -1.53900e+13   192451    0.00%
   2456   506  -1.53900e+13   180  -1.53900e+13  -1.53900e+13   292492    0.00%
   2739   539        cutoff        -1.53900e+13  -1.53900e+13   337087    0.00%
   3081   492        cutoff        -1.53900e+13  -1.53900e+13   277384    0.00%
   4649   701  -1.53900e+13   129  -1.53900e+13  -1.53900e+13   503539    0.00%
Elapsed time = 8.64 sec. (4170.49 ticks, tree = 2.04 MB, solutions = 10)
   6926   133    infeasible        -1.53900e+13  -1.53900e+13   863104    0.00%
   9635    53  -1.53900e+13   200  -1.53900e+13  -1.53900e+13   994841    0.00%
  11268    38  -1.53900e+13    71  -1.53900e+13  -1.53900e+13  1265720    0.00%

Performing restart 1

Repeating presolve.
Tried aggregator 3 times.
MIP Presolve eliminated 189 rows and 1053 columns.
MIP Presolve added 18 rows and 0 columns.
MIP Presolve modified 1999 coefficients.
Aggregator did 262 substitutions.
Reduced MIP has 3165 rows, 6498 columns, and 23621 nonzeros.
Reduced MIP has 6498 binaries, 0 generals, 0 SOSs, and 0 indicators.
Presolve time = 0.10 sec. (96.59 ticks)
Tried aggregator 2 times.
MIP Presolve eliminated 33 rows and 56 columns.
MIP Presolve modified 4 coefficients.
Aggregator did 4 substitutions.
Reduced MIP has 3128 rows, 6433 columns, and 23419 nonzeros.
Reduced MIP has 6433 binaries, 0 generals, 0 SOSs, and 0 indicators.
Presolve time = 0.04 sec. (39.51 ticks)
Tried aggregator 1 time.
Reduced MIP has 3128 rows, 6433 columns, and 23419 nonzeros.
Reduced MIP has 6433 binaries, 0 generals, 0 SOSs, and 0 indicators.
Presolve time = 0.02 sec. (16.95 ticks)
Represolve time = 0.37 sec. (245.95 ticks)
  11374     0  -1.53900e+13   263  -1.53900e+13      Cuts: 43  1373219    0.00%
  11374     0  -1.53900e+13   334  -1.53900e+13      Cuts: 33  1374630    0.00%
  11374     0  -1.53900e+13   224  -1.53900e+13      Cuts: 55  1375172    0.00%
  11374     0  -1.53900e+13   376  -1.53900e+13      Cuts: 46  1376032    0.00%
  11374     0  -1.53900e+13   265  -1.53900e+13      Cuts: 56  1376784    0.00%
  11374     0  -1.53900e+13   323  -1.53900e+13      Cuts: 33  1377347    0.00%
  11374     0  -1.53900e+13   339  -1.53900e+13      Cuts: 55  1377591    0.00%
  11374     0  -1.53900e+13   163  -1.53900e+13      Cuts: 54  1378071    0.00%
  11374     0  -1.53900e+13   244  -1.53900e+13      Cuts: 36  1378364    0.00%
  11374     0  -1.53900e+13   349  -1.53900e+13     Cuts: 153  1379377    0.00%
  11374     2        cutoff        -1.53900e+13  -1.53900e+13  1384238    0.00%
  11390     3  -1.53900e+13    79  -1.53900e+13  -1.53900e+13  1384319    0.00%

GUB cover cuts applied:  10
Clique cuts applied:  12
Cover cuts applied:  182
Mixed integer rounding cuts applied:  28
Zero-half cuts applied:  44
Lift and project cuts applied:  1
Gomory fractional cuts applied:  16

Root node processing (before b&c):
  Real time             =    1.25 sec. (1052.37 ticks)
Parallel b&c, 40 threads:
  Real time             =   16.75 sec. (11730.29 ticks)
  Sync time (average)   =    4.03 sec.
  Wait time (average)   =    0.19 sec.
                          ------------
Total (root+branch&cut) =   17.99 sec. (12782.66 ticks)

Solution pool: 10 solutions saved.

MIP - Integer optimal solution:  Objective = -1.5389998889e+13
Solution time =   18.12 sec.  Iterations = 1384749  Nodes = 11392
Deterministic time = 12782.69 ticks  (705.42 ticks/sec)

CPLEX> Solution 'p11' written to file 'ee.sol'.
CPLEX> 